c turning on binary mode checking
c parsing input formula with 259840 variables and 1039934 clauses
c finished parsing, read 23144325 bytes from proof file
c detected empty clause; start verification via backward checking
c 12745 of 1039934 clauses in core                            
c 16795 of 603337 lemmas in core using 114432 resolution steps
c 0 RAT lemmas in core; 984 redundant literals in core lemmas
s VERIFIED
c verification time: 2.876 seconds
